InboundTrucks  = 60;
OutboundTrucks = 30;
InboundDoors   = 6;
OutboundDoors  = 6;
ReleaseTime    = [97,49,82,60,52,111,25,25,86,50,7,54,56,108,57,4,115,67,41,25,30,63,80,78,96,109,82,66,24,111,51,41,60,16,54,59,95,91,106,90,84,4,66,31,96,32,57,60,111,110,63,34,5,119,114,22,111,80,98,12];
UnloadTime     = [12,34,26,10,21,23,22,17,32,18,24,22,37,25,29,32,22,29,28,31,39,25,32,13,22,34,35,43,32,32,36,20,25,45,32,32,17,22,30,10,15,42,34,30,16,28,20,26,41,29,18,45,21,45,39,18,38,13,10,21];
LoadTime       = [16,28,25,19,19,28,24,9,5,20,8,11,23,30,10,25,5,6,30,25,7,20,17,5,16,11,21,26,26,30];
TransferTime   = [| 36,0,44,0,0,24,0,0,0,24,0,0,45,12,0,0,0,0,0,0,0,0,0,0,0,17,22,45,0,0 | 0,0,0,0,0,0,0,0,0,0,0,0,0,0,0,0,47,0,40,0,0,0,45,33,0,0,22,0,38,12 | 0,0,0,19,0,0,12,0,0,0,14,0,46,0,0,0,0,0,0,22,0,0,0,0,0,0,0,0,0,0 | 0,0,0,0,0,0,0,0,0,0,0,0,49,0,0,0,11,0,0,0,0,0,15,0,0,0,0,21,0,0 | 0,0,14,0,14,0,0,0,0,0,26,0,0,0,0,22,0,0,0,40,0,50,0,0,0,19,0,0,0,0 | 0,0,0,0,0,31,0,38,0,0,0,0,0,0,0,0,0,25,0,27,32,0,15,0,0,0,0,43,0,32 | 0,14,26,0,0,0,0,0,0,29,45,22,20,0,48,42,15,0,35,0,0,47,0,0,0,26,0,32,0,0 | 0,0,26,0,0,0,0,0,0,45,0,0,0,11,48,0,0,0,0,0,0,0,0,17,0,0,0,0,0,0 | 0,0,36,0,0,0,0,0,0,0,0,0,23,0,0,44,35,20,0,48,49,0,0,0,0,0,13,0,0,0 | 0,47,0,0,0,0,0,0,16,0,0,0,29,0,42,0,0,17,0,36,25,0,0,0,0,21,0,23,20,0 | 0,0,13,35,36,0,0,0,0,32,0,0,0,0,0,50,0,0,22,0,31,0,0,0,0,0,0,0,0,0 | 37,0,0,0,34,0,0,0,0,0,0,0,0,0,0,0,0,0,0,0,0,0,0,17,16,0,0,0,27,37 | 16,24,0,38,0,39,0,0,32,22,0,0,0,26,13,33,0,0,0,0,0,25,0,0,0,0,0,18,33,0 | 0,48,41,0,0,0,0,0,16,0,11,0,26,0,0,0,0,0,0,47,0,0,0,0,0,0,0,0,0,0 | 0,0,0,0,31,0,0,0,42,0,0,27,0,29,0,0,0,0,0,0,17,0,0,0,0,0,0,0,0,0 | 0,0,0,0,0,0,0,0,0,0,0,0,0,0,0,0,0,31,0,11,0,21,0,0,0,0,0,0,0,30 | 0,0,0,0,17,0,0,0,34,0,0,45,19,0,0,0,0,0,22,50,0,0,0,0,0,0,0,0,0,0 | 0,0,18,0,39,30,43,0,32,0,30,0,0,0,0,0,20,41,0,0,0,26,0,0,0,0,31,0,0,0 | 0,0,0,0,0,0,0,0,0,0,0,0,36,0,0,0,0,33,0,22,0,0,0,0,10,0,41,0,0,0 | 0,0,0,0,0,42,10,16,0,0,0,23,0,30,40,0,0,0,0,41,0,0,0,35,0,0,0,0,17,12 | 0,0,0,0,0,0,0,0,0,0,28,24,27,0,0,0,0,28,27,0,0,0,0,0,0,0,0,0,0,39 | 0,0,0,0,0,0,0,0,34,0,44,0,0,18,0,0,0,26,0,0,43,0,0,0,0,35,0,0,0,10 | 0,0,0,0,0,28,0,18,0,0,27,10,0,36,13,10,0,0,12,40,0,0,0,0,27,16,0,0,15,0 | 0,0,0,0,30,0,39,47,0,0,0,0,0,0,0,0,0,0,0,0,0,0,0,43,14,22,15,0,0,0 | 0,0,0,0,0,0,0,0,41,0,0,0,0,12,0,0,24,0,0,0,0,36,0,0,0,0,0,0,0,0 | 27,0,0,0,0,0,0,0,0,42,0,0,0,0,26,0,0,39,0,39,0,10,0,0,0,0,19,0,0,0 | 0,0,39,34,0,0,0,50,0,0,40,0,0,0,0,0,0,0,34,0,0,26,23,0,31,0,0,24,0,0 | 0,26,0,0,0,39,0,0,0,0,0,0,0,0,0,0,44,0,0,0,0,0,0,0,0,31,16,0,0,0 | 10,0,0,0,0,0,0,33,0,30,0,0,12,0,0,0,32,0,0,0,0,31,0,0,0,27,0,0,0,0 | 0,14,0,0,0,0,0,11,0,28,0,10,26,0,37,0,0,0,0,0,0,0,18,0,32,0,0,0,0,0 | 31,0,0,0,0,0,0,18,0,0,0,0,20,0,0,45,0,0,0,0,0,0,44,0,0,0,0,26,0,0 | 0,0,0,30,33,25,0,0,0,0,40,19,0,40,0,0,30,0,0,0,50,0,0,0,0,0,0,0,0,0 | 0,0,0,0,0,27,0,23,31,0,0,0,0,0,0,0,0,0,0,0,0,0,0,29,24,0,0,0,0,0 | 24,0,11,0,0,0,38,0,0,0,0,0,11,0,0,0,0,0,0,0,0,0,0,20,0,30,0,0,0,44 | 0,0,29,36,29,14,0,34,0,0,0,34,0,0,0,50,0,0,0,0,0,0,16,0,0,0,0,0,0,0 | 0,0,50,0,26,0,0,0,0,0,40,0,0,36,39,0,0,0,10,27,0,0,0,40,31,19,41,0,41,0 | 31,0,0,0,0,0,0,0,0,0,27,0,45,0,38,0,0,0,0,28,0,0,0,0,0,0,16,14,0,0 | 27,0,0,0,0,22,0,0,0,0,39,34,0,0,0,19,0,0,0,0,0,47,0,0,0,48,31,13,0,0 | 0,21,0,36,13,50,0,0,0,0,26,0,0,0,29,0,31,32,0,0,0,0,0,0,31,0,0,36,0,0 | 0,35,0,0,44,0,0,16,0,0,0,0,0,0,0,0,0,0,0,33,32,0,0,0,24,14,0,0,0,0 | 0,0,27,13,0,40,20,46,0,47,0,10,0,13,0,19,0,0,0,0,0,0,35,41,0,0,0,0,23,0 | 22,24,42,0,0,0,0,46,0,0,36,0,41,45,13,0,0,13,0,0,0,0,0,0,0,0,0,0,10,0 | 20,0,0,0,0,0,0,0,0,0,0,0,18,0,0,0,0,0,0,0,30,0,0,0,0,19,0,0,0,43 | 34,0,0,0,23,0,27,0,22,0,0,32,35,38,0,0,0,0,0,19,48,10,34,0,0,0,0,38,13,0 | 0,0,0,0,20,0,0,13,15,0,0,0,0,0,0,0,0,0,0,46,0,0,0,0,0,17,0,0,0,0 | 0,0,0,0,0,0,0,39,0,0,0,0,0,14,0,0,0,0,32,0,0,0,0,0,0,36,0,0,0,0 | 0,37,0,0,0,0,25,18,0,0,0,0,0,0,0,0,0,0,25,0,0,13,0,0,0,0,0,0,0,0 | 0,0,43,0,0,38,0,0,0,0,0,47,0,0,0,0,42,0,0,0,0,0,0,0,0,45,0,0,0,0 | 0,0,0,0,0,0,48,0,0,30,0,0,0,0,0,0,0,0,0,48,0,0,40,0,37,0,0,0,0,29 | 0,34,0,0,0,45,0,0,0,0,34,35,0,0,0,0,0,0,23,0,0,0,0,0,0,0,0,0,0,0 | 0,39,0,0,28,0,0,0,0,0,25,33,0,18,0,24,22,0,0,0,0,48,0,0,0,26,0,39,0,0 | 24,35,0,38,0,40,42,26,26,0,0,0,42,0,0,13,0,40,0,0,0,0,0,0,0,0,21,20,24,0 | 0,0,0,0,0,0,24,0,0,0,42,28,0,32,0,0,0,0,0,0,0,0,0,0,0,17,0,0,42,11 | 0,0,0,38,0,0,0,0,23,19,0,30,0,0,14,0,0,0,31,0,0,48,0,0,0,0,0,0,0,25 | 0,18,0,17,40,36,37,0,0,0,46,0,0,0,25,0,0,0,0,22,0,0,0,0,0,0,0,25,0,0 | 0,0,0,0,34,0,21,0,0,0,0,0,0,0,0,0,22,0,0,0,50,0,19,0,0,0,0,0,13,0 | 37,0,0,41,0,23,0,0,24,0,0,34,0,0,0,0,0,23,0,0,0,33,0,0,0,0,0,0,0,39 | 0,35,33,31,0,0,0,0,0,0,0,46,0,0,10,21,16,0,0,0,0,0,24,0,0,0,0,48,0,0 | 0,0,0,0,44,0,0,0,0,26,0,0,0,0,0,0,0,10,0,0,0,0,0,0,43,47,0,0,43,0 | 44,0,0,0,0,0,0,18,0,0,0,34,0,0,0,0,0,0,0,45,0,0,0,0,0,0,21,0,0,15 |];
